[VALIDATOR STDOUT]
Checking plan: /home/jfan5/Safety-gen/runs/benchmark/optic/grippers_20260201_172244/grippers/optic_results/grippers-n3-r28-o26-s26001.plan
Plan executed successfully - checking goal
Plan valid
Final value: 96 

Successful plans:
Value: 96
 /home/jfan5/Safety-gen/runs/benchmark/optic/grippers_20260201_172244/grippers/optic_results/grippers-n3-r28-o26-s26001.plan 96
